\ENCODING=ISO-8859-1
\Problem name: 

Maximize
 obj: x1 + x2 + x3 + x4 + x5 + x6 + x7 + x8 + x9 + x10 + x11 + x12 + x13 + x14
      + x15 + x16 + x17 + x18 + x19 + x20 + x21 + x22 + x23 + x24 + x25 + x26
      + x27 + x28 + x29 + x30 + x31 + x32 + x33 + x34 + x35 + x36 + x37 + x38
      + x39 + x40 + x41 + x42 + x43 + x44 + x45 + x46 + x47 + x48 + x49 + x50
      + x51 + x52 + x53 + x54 + x55 + x56 + x57 + x58 + x59 + x60 + x61 + x62
      + x63 + x64 + x65 + x66 + x67 + x68 + x69 + x70 + x71 + x72 + x73 + x74
      + x75 + x76 + x77 + x78 + x79 + x80 + x81 + x82 + x83 + x84 + x85 + x86
      + x87 + x88 + x89 + x90 + x91 + x92 + x93 + x94 + x95 + x96 + x97 + x98
      + x99 + x100 + x101 + x102 + x103 + x104 + x105 + x106 + x107 + x108
      + x109 + x110 + x111 + x112 + x113 + x114 + x115 + x116 + x117 + x118
      + x119 + x120 + x121 + x122 + x123 + x124 + x125 + x126 + x127 + x128
      + x129 + x130 + x131 + x132 + x133 + x134 + x135 + x136 + x137 + x138
      + x139 + x140 + x141 + x142 + x143 + x144 + x145 + x146 + x147 + x148
      + x149 + x150
Subject To
 clq1:   x2 + x37 + x82 + x99 + x136 <= 1
 clq2:   x23 + x36 + x104 + x112 <= 1
 clq3:   x23 + x65 + x130 <= 1
 clq4:   x16 + x17 + x137 <= 1
 clq5:   x3 + x38 + x144 <= 1
 clq6:   x2 + x19 + x104 + x112 <= 1
 clq7:   x65 + x122 + x130 + x148 <= 1
 clq8:   x54 + x105 + x115 + x138 <= 1
 clq9:   x7 + x79 + x134 <= 1
 clq10:  x23 + x26 + x104 <= 1
 clq11:  x48 + x53 + x128 <= 1
 clq12:  x55 + x58 + x71 <= 1
 clq13:  x10 + x45 + x82 + x133 <= 1
 clq14:  x66 + x101 + x110 <= 1
 clq15:  x47 + x81 + x91 + x108 <= 1
 clq16:  x20 + x25 + x74 + x97 <= 1
 clq17:  x27 + x90 + x127 + x139 <= 1
 clq18:  x40 + x88 + x141 + x143 <= 1
 clq19:  x29 + x80 + x100 + x138 <= 1
 clq20:  x63 + x138 + x149 <= 1
 clq21:  x29 + x120 + x124 + x140 <= 1
 clq22:  x66 + x92 + x102 + x107 <= 1
 clq23:  x78 + x94 + x142 <= 1
 clq24:  x83 + x92 + x102 <= 1
 clq25:  x4 + x109 + x112 <= 1
 clq26:  x43 + x96 + x135 <= 1
 clq27:  x14 + x132 + x136 <= 1
 clq28:  x15 + x21 + x101 + x149 <= 1
 clq29:  x49 + x96 + x97 + x98 <= 1
 clq30:  x26 + x50 + x88 + x139 <= 1
 clq31:  x90 + x127 + x129 <= 1
 clq32:  x12 + x114 + x138 <= 1
 clq33:  x2 + x53 + x100 <= 1
 clq34:  x53 + x56 + x143 <= 1
 clq35:  x42 + x72 + x149 <= 1
 clq36:  x66 + x84 + x102 + x107 <= 1
 clq37:  x62 + x70 + x73 + x87 + x102 <= 1
 clq38:  x20 + x53 + x141 + x143 <= 1
 clq39:  x80 + x94 + x103 <= 1
 clq40:  x15 + x52 + x116 + x142 <= 1
 clq41:  x8 + x64 + x115 <= 1
 clq42:  x15 + x104 + x112 + x115 <= 1
 clq43:  x24 + x33 + x138 <= 1
 clq44:  x22 + x81 + x137 <= 1
 clq45:  x8 + x37 + x56 + x142 <= 1
 clq46:  x9 + x14 + x62 + x100 <= 1
 clq47:  x44 + x50 + x115 <= 1
 clq48:  x50 + x68 + x82 + x149 <= 1
 clq49:  x2 + x17 + x64 <= 1
 clq50:  x18 + x22 + x62 + x120 + x127 <= 1
 clq51:  x4 + x34 + x135 + x145 <= 1
 clq52:  x130 + x131 + x148 <= 1
 clq53:  x96 + x97 + x128 <= 1
 clq54:  x67 + x73 + x100 + x111 <= 1
 clq55:  x28 + x104 + x140 <= 1
 clq56:  x6 + x83 + x136 <= 1
 clq57:  x6 + x109 + x122 <= 1
 clq58:  x73 + x86 + x119 <= 1
 clq59:  x15 + x104 + x111 + x115 <= 1
 clq60:  x70 + x79 + x102 + x112 <= 1
 clq61:  x27 + x65 + x146 <= 1
 clq62:  x30 + x54 + x93 <= 1
 clq63:  x40 + x49 + x81 <= 1
 clq64:  x35 + x48 + x70 + x128 <= 1
 clq65:  x59 + x110 + x119 <= 1
 clq66:  x19 + x76 + x77 + x103 <= 1
 clq67:  x81 + x98 + x145 <= 1
 clq68:  x48 + x112 + x120 <= 1
 clq69:  x3 + x33 + x138 <= 1
 clq70:  x8 + x86 + x121 <= 1
 clq71:  x80 + x93 + x101 <= 1
 clq72:  x50 + x59 + x92 <= 1
 clq73:  x1 + x23 + x40 + x90 <= 1
 clq74:  x16 + x40 + x88 + x134 <= 1
 clq75:  x13 + x14 + x32 <= 1
 clq76:  x55 + x69 + x88 + x127 + x139 <= 1
 clq77:  x40 + x68 + x114 <= 1
 clq78:  x44 + x46 + x64 <= 1
 clq79:  x89 + x126 + x131 <= 1
 clq80:  x67 + x108 + x121 + x147 <= 1
 clq81:  x30 + x66 + x102 <= 1
 clq82:  x52 + x88 + x149 <= 1
 clq83:  x5 + x15 + x39 + x101 <= 1
 clq84:  x20 + x71 + x99 <= 1
 clq85:  x79 + x108 + x144 <= 1
 clq86:  x13 + x34 + x63 <= 1
 clq87:  x65 + x110 + x121 <= 1
 clq88:  x8 + x37 + x56 + x74 <= 1
 clq89:  x12 + x19 + x39 + x114 <= 1
 clq90:  x29 + x41 + x53 <= 1
 clq91:  x34 + x36 + x61 + x99 <= 1
 clq92:  x25 + x140 + x144 <= 1
 clq93:  x19 + x23 + x68 <= 1
 clq94:  x2 + x11 + x79 + x112 <= 1
 clq95:  x15 + x65 + x139 <= 1
 clq96:  x12 + x59 + x62 + x89 <= 1
 clq97:  x11 + x93 + x138 + x145 <= 1
 clq98:  x14 + x100 + x114 + x138 <= 1
 clq99:  x44 + x61 + x100 <= 1
 clq100: x8 + x104 + x133 <= 1
 clq101: x80 + x93 + x109 <= 1
 clq102: x46 + x84 + x106 <= 1
 clq103: x31 + x37 + x51 <= 1
 clq104: x34 + x57 + x63 + x124 <= 1
 clq105: x5 + x55 + x59 + x148 <= 1
 clq106: x11 + x72 + x145 <= 1
 clq107: x91 + x107 + x142 <= 1
 clq108: x16 + x88 + x134 + x139 <= 1
 clq109: x15 + x16 + x21 + x111 <= 1
 clq110: x40 + x75 + x90 + x143 <= 1
 clq111: x70 + x76 + x107 + x112 <= 1
 clq112: x16 + x47 + x146 <= 1
 clq113: x72 + x77 + x88 + x141 <= 1
 clq114: x64 + x136 + x140 <= 1
 clq115: x38 + x66 + x97 + x125 <= 1
 clq116: x57 + x90 + x102 + x103 <= 1
 clq117: x26 + x56 + x103 <= 1
 clq118: x30 + x67 + x120 <= 1
 clq119: x23 + x90 + x132 <= 1
 clq120: x21 + x49 + x99 + x146 <= 1
 clq121: x19 + x62 + x108 + x147 <= 1
 clq122: x58 + x60 + x63 <= 1
 clq123: x8 + x60 + x86 + x104 <= 1
 clq124: x53 + x105 + x125 + x134 <= 1
 clq125: x44 + x91 + x107 <= 1
 clq126: x11 + x33 + x64 + x120 + x140 <= 1
 clq127: x90 + x102 + x118 <= 1
 clq128: x11 + x32 + x120 + x140 <= 1
 clq129: x25 + x92 + x97 + x100 <= 1
 clq130: x99 + x128 + x136 <= 1
 clq131: x27 + x35 + x106 <= 1
 clq132: x27 + x39 + x136 + x139 <= 1
 clq133: x78 + x100 + x142 <= 1
 clq134: x32 + x56 + x69 + x87 <= 1
 clq135: x43 + x75 + x124 + x140 <= 1
 clq136: x34 + x124 + x129 <= 1
 clq137: x16 + x20 + x109 + x139 <= 1
 clq138: x25 + x48 + x128 + x140 <= 1
 clq139: x28 + x89 + x101 <= 1
 clq140: x5 + x8 + x18 + x121 <= 1
 clq141: x65 + x122 + x130 + x137 <= 1
 clq142: x72 + x75 + x90 <= 1
 clq143: x30 + x44 + x67 + x121 <= 1
 clq144: x71 + x126 + x131 <= 1
 clq145: x18 + x62 + x108 + x149 <= 1
 clq146: x10 + x37 + x59 + x105 <= 1
 clq147: x27 + x36 + x73 + x99 <= 1
 clq148: x72 + x74 + x114 <= 1
 clq149: x5 + x17 + x23 + x76 <= 1
 clq150: x81 + x137 + x143 <= 1
 clq151: x70 + x73 + x99 + x102 <= 1
 clq152: x12 + x19 + x84 + x114 <= 1
 clq153: x6 + x23 + x37 + x58 <= 1
 clq154: x109 + x122 + x130 + x139 <= 1
 clq155: x10 + x41 + x128 + x132 <= 1
 clq156: x67 + x95 + x120 <= 1
 clq157: x25 + x69 + x82 <= 1
 clq158: x5 + x27 + x39 + x139 <= 1
 clq159: x38 + x81 + x145 + x150 <= 1
 clq160: x23 + x36 + x46 <= 1
 clq161: x52 + x63 + x67 + x116 + x144 <= 1
 clq162: x5 + x20 + x69 + x139 <= 1
 clq163: x3 + x30 + x52 + x67 <= 1
 clq164: x38 + x101 + x119 + x123 <= 1
 clq165: x21 + x82 + x141 <= 1
 clq166: x31 + x35 + x81 + x106 <= 1
 clq167: x59 + x127 + x146 <= 1
 clq168: x25 + x82 + x133 <= 1
 clq169: x72 + x91 + x105 <= 1
 clq170: x7 + x50 + x70 + x73 + x99 <= 1
 clq171: x32 + x57 + x81 + x124 <= 1
 clq172: x9 + x103 + x125 + x134 <= 1
 clq173: x19 + x93 + x114 <= 1
 clq174: x37 + x105 + x108 + x135 <= 1
 clq175: x3 + x52 + x67 + x85 <= 1
 clq176: x7 + x40 + x75 + x86 <= 1
 clq177: x25 + x81 + x108 + x145 <= 1
 clq178: x32 + x103 + x124 + x134 <= 1
 clq179: x42 + x48 + x72 <= 1
 clq180: x17 + x89 + x131 <= 1
 clq181: x12 + x66 + x84 + x106 <= 1
 clq182: x33 + x58 + x64 <= 1
 clq183: x108 + x132 + x135 + x149 <= 1
 clq184: x56 + x76 + x103 + x130 <= 1
 clq185: x61 + x100 + x144 <= 1
 clq186: x25 + x28 + x46 + x95 <= 1
 clq187: x4 + x12 + x18 + x62 <= 1
 clq188: x70 + x91 + x103 + x105 <= 1
 clq189: x55 + x103 + x125 + x149 <= 1
 clq190: x7 + x40 + x75 + x90 <= 1
 clq191: x17 + x24 + x86 + x107 <= 1
 clq192: x21 + x32 + x83 + x124 <= 1
 clq193: x32 + x40 + x81 + x114 <= 1
 clq194: x25 + x46 + x48 <= 1
 clq195: x29 + x80 + x84 <= 1
 clq196: x10 + x58 + x63 + x144 <= 1
 clq197: x5 + x38 + x99 + x116 <= 1
 clq198: x16 + x44 + x64 + x97 <= 1
 clq199: x38 + x116 + x130 + x148 <= 1
 clq200: x5 + x30 + x93 + x139 <= 1
 clq201: x4 + x12 + x18 + x61 <= 1
 clq202: x13 + x32 + x54 <= 1
 clq203: x7 + x50 + x80 + x99 <= 1
 clq204: x32 + x120 + x125 + x140 <= 1
 clq205: x22 + x26 + x39 + x56 <= 1
 clq206: x16 + x97 + x111 <= 1
 clq207: x39 + x40 + x145 <= 1
 clq208: x70 + x91 + x103 + x133 <= 1
 clq209: x7 + x56 + x142 <= 1
 clq210: x52 + x83 + x116 <= 1
 clq211: x1 + x23 + x77 + x87 <= 1
 clq212: x15 + x65 + x115 <= 1
 clq213: x104 + x107 + x132 <= 1
 clq214: x3 + x12 + x69 + x141 <= 1
 clq215: x88 + x108 + x143 + x147 <= 1
 clq216: x10 + x55 + x103 + x133 <= 1
 clq217: x59 + x62 + x89 + x124 <= 1
 clq218: x75 + x92 + x138 <= 1
 clq219: x5 + x56 + x73 + x99 <= 1
 clq220: x23 + x58 + x80 <= 1
 clq221: x85 + x128 + x137 <= 1
 clq222: x92 + x97 + x98 + x141 <= 1
 clq223: x36 + x65 + x66 + x129 <= 1
 clq224: x59 + x70 + x103 + x105 <= 1
 clq225: x37 + x58 + x107 <= 1
 clq226: x3 + x14 + x17 + x89 <= 1
 clq227: x6 + x72 + x114 <= 1
 clq228: x46 + x75 + x146 <= 1
 clq229: x5 + x23 + x57 + x76 <= 1
 clq230: x16 + x88 + x128 <= 1
 clq231: x40 + x91 + x93 <= 1
 clq232: x21 + x56 + x130 <= 1
 clq233: x84 + x123 + x135 <= 1
 clq234: x20 + x35 + x48 <= 1
 clq235: x32 + x120 + x124 + x140 <= 1
 clq236: x18 + x61 + x68 + x149 <= 1
 clq237: x5 + x27 + x39 + x101 <= 1
 clq238: x16 + x21 + x111 + x146 <= 1
 clq239: x70 + x102 + x103 + x105 + x125 <= 1
 clq240: x31 + x35 + x116 + x126 <= 1
 clq241: x57 + x81 + x106 + x147 <= 1
 clq242: x5 + x119 + x129 <= 1
 clq243: x35 + x63 + x70 + x116 <= 1
 clq244: x96 + x143 + x147 <= 1
 clq245: x39 + x49 + x98 <= 1
 clq246: x41 + x49 + x96 + x98 <= 1
 clq247: x9 + x22 + x57 + x115 <= 1
 clq248: x47 + x93 + x114 <= 1
 clq249: x19 + x112 + x131 <= 1
 clq250: x2 + x57 + x87 + x114 <= 1
 clq251: x34 + x37 + x124 + x126 <= 1
 clq252: x14 + x78 + x94 + x102 <= 1
 clq253: x4 + x58 + x106 <= 1
 clq254: x50 + x74 + x82 + x97 <= 1
 clq255: x2 + x37 + x99 + x146 <= 1
 clq256: x20 + x25 + x48 <= 1
 clq257: x8 + x60 + x96 + x142 <= 1
 clq258: x24 + x50 + x78 <= 1
 clq259: x12 + x35 + x128 + x141 <= 1
 clq260: x37 + x124 + x142 <= 1
 clq261: x26 + x46 + x150 <= 1
 clq262: x21 + x43 + x124 <= 1
 clq263: x5 + x39 + x129 <= 1
 clq264: x18 + x57 + x90 <= 1
 clq265: x58 + x80 + x84 + x106 <= 1
 clq266: x45 + x62 + x139 <= 1
 clq267: x41 + x96 + x110 + x147 <= 1
 clq268: x13 + x34 + x91 <= 1
 clq269: x49 + x111 + x140 <= 1
 clq270: x4 + x44 + x97 <= 1
 clq271: x6 + x98 + x122 <= 1
 clq272: x8 + x117 + x145 <= 1
 clq273: x25 + x26 + x88 + x108 <= 1
 clq274: x71 + x91 + x139 <= 1
 clq275: x29 + x117 + x124 <= 1
 clq276: x38 + x80 + x123 + x134 <= 1
 clq277: x128 + x135 + x140 <= 1
 clq278: x19 + x61 + x76 <= 1
 clq279: x8 + x33 + x142 <= 1
 clq280: x9 + x84 + x115 <= 1
 clq281: x29 + x59 + x124 <= 1
 clq282: x27 + x49 + x74 + x97 <= 1
 clq283: x24 + x115 + x131 <= 1
 clq284: x10 + x46 + x95 <= 1
 clq285: x29 + x41 + x147 <= 1
 clq286: x31 + x75 + x121 <= 1
 clq287: x5 + x19 + x76 + x105 <= 1
 clq288: x22 + x120 + x123 <= 1
 clq289: x17 + x52 + x71 <= 1
 clq290: x32 + x50 + x124 <= 1
 clq291: x35 + x102 + x106 <= 1
 clq292: x40 + x93 + x101 + x114 <= 1
 clq293: x27 + x107 + x142 <= 1
 clq294: x26 + x88 + x108 + x143 <= 1
 clq295: x92 + x93 + x98 + x139 <= 1
 clq296: x94 + x99 + x146 <= 1
 clq297: x22 + x38 + x81 + x115 <= 1
 clq298: x10 + x63 + x143 <= 1
 clq299: x25 + x28 + x81 <= 1
 clq300: x14 + x44 + x78 + x100 <= 1
 clq301: x12 + x50 + x78 + x79 <= 1
 clq302: x7 + x24 + x56 + x135 <= 1
 clq303: x103 + x117 + x124 <= 1
 clq304: x106 + x139 + x149 <= 1
 clq305: x25 + x28 + x74 + x80 <= 1
 clq306: x18 + x48 + x61 + x120 <= 1
 clq307: x4 + x55 + x61 + x68 <= 1
 clq308: x89 + x92 + x131 <= 1
 clq309: x62 + x64 + x115 + x120 <= 1
 clq310: x92 + x93 + x138 + x145 <= 1
 clq311: x9 + x43 <= 1
 clq312: x70 + x91 + x107 + x112 <= 1
 clq313: x40 + x43 + x75 <= 1
 clq314: x48 + x58 + x119 <= 1
 clq315: x30 + x102 + x118 + x131 <= 1
 clq316: x107 + x134 <= 1
 clq317: x46 + x71 + x95 <= 1
 clq318: x86 + x117 + x119 <= 1
 clq319: x4 + x26 + x35 <= 1
 clq320: x1 + x7 + x70 + x79 <= 1
 clq321: x65 + x122 + x130 + x139 <= 1
 clq322: x40 + x81 + x143 <= 1
 clq323: x87 + x98 + x105 + x122 <= 1
 clq324: x74 + x122 + x123 <= 1
 clq325: x5 + x22 + x56 + x93 <= 1
 clq326: x18 + x30 + x45 + x146 <= 1
 clq327: x17 + x66 + x102 + x107 <= 1
 clq328: x20 + x97 + x132 + x136 <= 1
 clq329: x8 + x84 + x88 <= 1
 clq330: x33 + x74 + x89 + x114 <= 1
 clq331: x42 + x80 + x101 <= 1
 clq332: x50 + x59 + x74 + x149 <= 1
 clq333: x16 + x33 + x64 + x120 <= 1
 clq334: x5 + x55 + x58 + x119 <= 1
 clq335: x16 + x20 + x127 + x139 <= 1
 clq336: x37 + x63 + x82 + x136 <= 1
 clq337: x26 + x56 + x72 <= 1
 clq338: x90 + x119 + x129 <= 1
 clq339: x49 + x82 + x97 + x136 <= 1
 clq340: x31 + x61 + x81 <= 1
 clq341: x33 + x52 + x66 + x144 <= 1
 clq342: x13 + x17 + x45 <= 1
 clq343: x15 + x64 + x91 <= 1
 clq344: x7 + x16 + x127 <= 1
 clq345: x9 + x73 + x108 + x119 <= 1
 clq346: x68 + x72 + x105 + x145 <= 1
 clq347: x8 + x121 + x142 <= 1
 clq348: x5 + x55 + x125 + x140 <= 1
 clq349: x41 + x52 + x63 <= 1
 clq350: x12 + x84 + x106 + x143 <= 1
 clq351: x28 + x46 + x75 + x88 <= 1
 clq352: x8 + x18 + x80 <= 1
 clq353: x24 + x56 + x97 <= 1
 clq354: x9 + x98 + x104 <= 1
 clq355: x13 + x14 + x35 + x63 + x102 <= 1
 clq356: x97 + x98 + x111 + x141 <= 1
 clq357: x32 + x54 + x56 + x132 <= 1
 clq358: x22 + x62 + x93 <= 1
 clq359: x7 + x16 + x53 + x94 <= 1
 clq360: x18 + x85 + x150 <= 1
 clq361: x9 + x36 + x73 + x108 <= 1
 clq362: x20 + x41 + x52 <= 1
 clq363: x16 + x17 + x71 + x102 <= 1
 clq364: x1 + x8 + x150 <= 1
 clq365: x45 + x121 + x142 <= 1
 clq366: x48 + x67 + x82 + x132 <= 1
 clq367: x65 + x77 + x88 + x148 <= 1
 clq368: x70 + x79 + x105 + x128 <= 1
 clq369: x29 + x87 + x97 <= 1
 clq370: x2 + x28 + x66 + x101 <= 1
 clq371: x5 + x13 + x33 + x73 <= 1
 clq372: x3 + x30 + x67 + x111 <= 1
 clq373: x29 + x71 + x72 + x145 <= 1
 clq374: x54 + x88 + x141 <= 1
 clq375: x63 + x70 + x73 + x102 <= 1
 clq376: x5 + x33 + x76 + x105 <= 1
 clq377: x6 + x72 + x75 <= 1
 clq378: x51 + x77 + x87 + x95 <= 1
 clq379: x94 + x145 + x146 <= 1
 clq380: x1 + x40 + x90 + x129 + x143 <= 1
 clq381: x55 + x88 + x108 + x132 + x149 <= 1
 clq382: x63 + x92 + x138 <= 1
 clq383: x32 + x120 + x127 <= 1
 clq384: x54 + x121 + x129 <= 1
 clq385: x14 + x103 + x138 + x148 <= 1
 clq386: x89 + x114 + x125 + x146 <= 1
 clq387: x34 + x37 + x126 + x148 <= 1
 clq388: x82 + x121 + x125 <= 1
 clq389: x15 + x81 + x115 <= 1
 clq390: x54 + x105 + x135 <= 1
 clq391: x9 + x27 + x142 <= 1
 clq392: x62 + x93 + x100 <= 1
 clq393: x89 + x99 + x135 <= 1
 clq394: x50 + x55 + x68 + x149 <= 1
 clq395: x97 + x98 + x113 <= 1
 clq396: x14 + x49 + x62 <= 1
 clq397: x20 + x36 + x66 + x99 <= 1
 clq398: x7 + x82 + x94 + x99 <= 1
 clq399: x110 + x128 + x133 <= 1
 clq400: x37 + x41 + x68 + x110 <= 1
 clq401: x69 + x87 + x88 + x139 <= 1
 clq402: x34 + x37 + x63 + x124 <= 1
 clq403: x32 + x116 + x121 + x142 <= 1
 clq404: x11 + x27 + x49 + x138 <= 1
 clq405: x34 + x74 + x91 <= 1
 clq406: x40 + x46 + x84 + x114 <= 1
 clq407: x33 + x52 + x142 <= 1
 clq408: x32 + x69 + x87 + x124 <= 1
 clq409: x67 + x71 + x111 <= 1
 clq410: x25 + x44 + x77 + x78 + x100 <= 1
 clq411: x13 + x14 + x94 + x102 <= 1
 clq412: x30 + x52 + x104 <= 1
 clq413: x11 + x34 + x138 + x145 <= 1
 clq414: x21 + x108 + x111 <= 1
 clq415: x31 + x69 <= 1
 clq416: x21 + x49 + x56 + x95 <= 1
 clq417: x5 + x55 + x116 + x148 <= 1
 clq418: x41 + x53 + x55 + x58 <= 1
 clq419: x38 + x80 + x148 <= 1
 clq420: x54 + x75 + x88 + x121 <= 1
 clq421: x38 + x59 + x66 <= 1
 clq422: x57 + x106 + x120 <= 1
 clq423: x27 + x68 + x146 <= 1
 clq424: x31 + x37 + x126 <= 1
 clq425: x77 + x93 + x138 + x145 <= 1
 clq426: x18 + x48 + x120 + x146 <= 1
 clq427: x52 + x71 + x79 <= 1
 clq428: x62 + x65 + x118 <= 1
 clq429: x79 + x108 + x147 <= 1
 clq430: x57 + x103 + x138 <= 1
 clq431: x56 + x73 + x87 + x119 <= 1
 clq432: x24 + x65 + x115 <= 1
 clq433: x113 + x116 + x121 + x142 <= 1
 clq434: x51 + x66 + x68 <= 1
 clq435: x7 + x53 + x55 <= 1
 clq436: x26 + x65 + x88 + x143 <= 1
 clq437: x44 + x50 + x137 <= 1
 clq438: x53 + x92 + x100 <= 1
 clq439: x31 + x81 + x150 <= 1
 clq440: x99 + x102 + x122 <= 1
 clq441: x71 + x123 <= 1
 clq442: x67 + x108 + x111 + x147 <= 1
 clq443: x44 + x45 + x69 + x100 <= 1
 clq444: x47 + x60 + x124 <= 1
 clq445: x6 + x37 + x101 + x110 <= 1
 clq446: x30 + x54 + x75 + x121 <= 1
 clq447: x51 + x52 + x116 <= 1
 clq448: x70 + x79 + x114 <= 1
 clq449: x3 + x14 + x30 + x67 <= 1
 clq450: x25 + x44 + x46 <= 1
 clq451: x3 + x10 + x17 <= 1
 clq452: x36 + x46 + x56 + x73 <= 1
 clq453: x6 + x97 + x98 + x111 <= 1
 clq454: x77 + x88 + x93 + x147 <= 1
 clq455: x7 + x65 + x110 <= 1
 clq456: x84 + x116 + x123 <= 1
 clq457: x6 + x83 + x102 <= 1
 clq458: x32 + x103 + x125 + x134 <= 1
 clq459: x16 + x33 + x74 + x137 <= 1
 clq460: x34 + x50 + x60 + x124 <= 1
 clq461: x7 + x75 + x90 + x95 <= 1
 clq462: x75 + x88 + x128 <= 1
 clq463: x14 + x49 + x99 + x136 <= 1
 clq464: x40 + x42 + x69 <= 1
 clq465: x5 + x38 + x81 + x116 + x121 <= 1
 clq466: x71 + x72 + x91 <= 1
 clq467: x1 + x79 + x115 <= 1
 clq468: x50 + x113 + x116 + x144 <= 1
 clq469: x47 + x124 + x129 <= 1
 clq470: x81 + x114 + x150 <= 1
 clq471: x26 + x43 + x65 <= 1
 clq472: x42 + x80 + x134 <= 1
 clq473: x35 + x63 + x80 + x141 <= 1
 clq474: x51 + x128 + x136 <= 1
 clq475: x49 + x61 + x81 + x135 <= 1
 clq476: x88 + x128 + x141 <= 1
 clq477: x86 + x89 + x125 + x135 <= 1
 clq478: x10 + x120 + x130 <= 1
 clq479: x15 + x92 + x139 <= 1
 clq480: x90 + x118 + x133 <= 1
 clq481: x76 + x94 + x103 <= 1
 clq482: x19 + x110 + x147 <= 1
 clq483: x44 + x52 + x67 + x135 <= 1
 clq484: x6 + x39 + x129 + x136 <= 1
 clq485: x12 + x37 + x48 <= 1
 clq486: x53 + x105 + x128 <= 1
 clq487: x5 + x33 + x144 + x146 <= 1
 clq488: x5 + x122 + x139 + x144 <= 1
 clq489: x6 + x83 + x116 <= 1
 clq490: x7 + x62 + x75 + x124 <= 1
 clq491: x44 + x123 + x135 <= 1
 clq492: x102 + x122 + x144 <= 1
 clq493: x6 + x116 + x148 <= 1
 clq494: x16 + x21 + x127 + x139 <= 1
 clq495: x64 + x108 + x132 <= 1
 clq496: x59 + x85 + x110 <= 1
 clq497: x6 + x39 + x98 <= 1
 clq498: x16 + x17 + x64 <= 1
 clq499: x25 + x99 + x128 <= 1
 clq500: x36 + x47 + x108 <= 1
 clq501: x27 + x36 + x65 <= 1
 clq502: x29 + x38 + x59 + x150 <= 1
 clq503: x105 + x108 + x119 <= 1
 clq504: x29 + x38 + x80 + x100 + x117 <= 1
 clq505: x32 + x39 + x54 + x56 <= 1
 clq506: x29 + x38 + x51 + x80 <= 1
 clq507: x36 + x63 + x73 + x137 + x141 <= 1
 clq508: x43 + x79 + x147 <= 1
 clq509: x6 + x15 + x101 + x149 <= 1
 clq510: x63 + x102 + x144 <= 1
 clq511: x24 + x81 + x115 <= 1
 clq512: x52 + x79 + x98 <= 1
 clq513: x27 + x127 + x138 <= 1
 clq514: x131 + x144 + x150 <= 1
 clq515: x26 + x87 + x88 + x139 <= 1
 clq516: x22 + x34 + x99 <= 1
 clq517: x9 + x19 + x103 + x134 <= 1
 clq518: x28 + x89 + x131 + x132 <= 1
 clq519: x25 + x128 + x133 <= 1
 clq520: x5 + x38 + x121 + x125 + x148 <= 1
 clq521: x82 + x97 + x98 + x141 <= 1
 clq522: x82 + x83 + x93 <= 1
 clq523: x24 + x36 + x56 <= 1
 clq524: x6 + x122 + x137 <= 1
 clq525: x30 + x45 + x54 + x121 <= 1
 clq526: x17 + x45 + x71 <= 1
 clq527: x15 + x103 + x136 <= 1
 clq528: x47 + x67 + x108 + x147 <= 1
 clq529: x66 + x110 + x144 <= 1
 clq530: x70 + x82 + x91 + x133 <= 1
 clq531: x7 + x80 + x94 + x99 <= 1
 clq532: x18 + x78 + x120 <= 1
 clq533: x41 + x49 + x96 + x135 <= 1
 clq534: x55 + x89 + x116 + x132 <= 1
 clq535: x84 + x122 + x140 <= 1
 clq536: x27 + x104 + x136 <= 1
 clq537: x28 + x46 + x73 + x88 <= 1
 clq538: x30 + x38 + x45 + x118 <= 1
 clq539: x15 + x81 + x118 <= 1
 clq540: x58 + x78 <= 1
 clq541: x65 + x97 + x141 <= 1
 clq542: x12 + x69 + x132 <= 1
 clq543: x41 + x49 + x96 + x110 <= 1
 clq544: x69 + x117 + x119 <= 1
 clq545: x91 + x108 + x148 <= 1
 clq546: x8 + x80 + x103 + x133 <= 1
 clq547: x81 + x108 + x135 + x145 <= 1
 clq548: x16 + x20 + x74 + x97 <= 1
 clq549: x24 + x51 + x135 <= 1
 clq550: x41 + x92 + x98 <= 1
 clq551: x34 + x50 + x99 + x135 <= 1
 clq552: x16 + x109 + x111 <= 1
 clq553: x16 + x47 + x109 <= 1
 clq554: x17 + x86 + x107 + x141 <= 1
 clq555: x27 + x30 + x104 + x146 <= 1
 clq556: x15 + x52 + x103 + x116 + x144 <= 1
 clq557: x24 + x32 + x83 + x116 <= 1
 clq558: x5 + x105 + x119 + x126 <= 1
 clq559: x40 + x86 + x93 <= 1
 clq560: x6 + x23 + x76 <= 1
 clq561: x23 + x49 + x140 <= 1
 clq562: x15 + x101 + x115 <= 1
 clq563: x1 + x39 + x77 + x150 <= 1
 clq564: x49 + x55 + x69 <= 1
 clq565: x17 + x64 + x133 <= 1
 clq566: x72 + x86 + x147 <= 1
 clq567: x22 + x52 + x85 <= 1
 clq568: x54 + x68 + x105 <= 1
 clq569: x1 + x8 + x121 <= 1
 clq570: x83 + x110 + x128 <= 1
 clq571: x117 + x131 <= 1
 clq572: x86 + x128 + x137 + x141 <= 1
 clq573: x10 + x47 + x114 <= 1
 clq574: x46 + x51 + x95 <= 1
 clq575: x71 + x87 + x102 + x107 <= 1
 clq576: x7 + x73 + x134 <= 1
 clq577: x79 + x98 + x141 <= 1
 clq578: x36 + x90 + x111 <= 1
 clq579: x5 + x17 + x56 + x93 <= 1
 clq580: x103 + x124 + x126 <= 1
 clq581: x5 + x11 + x140 + x143 <= 1
 clq582: x34 + x36 + x66 + x129 <= 1
 clq583: x13 + x41 + x128 <= 1
 clq584: x16 + x64 + x126 <= 1
 clq585: x31 + x81 + x121 + x125 <= 1
 clq586: x50 + x60 + x113 + x124 <= 1
 clq587: x90 + x132 + x135 <= 1
 clq588: x15 + x31 + x81 + x91 <= 1
 clq589: x50 + x55 + x116 + x119 <= 1
 clq590: x46 + x54 + x56 <= 1
 clq591: x16 + x128 + x135 <= 1
 clq592: x81 + x110 + x121 + x147 <= 1
 clq593: x3 + x33 + x52 + x144 <= 1
 clq594: x90 + x95 + x102 <= 1
 clq595: x27 + x106 + x147 <= 1
 clq596: x31 + x79 + x116 <= 1
 clq597: x12 + x19 + x42 <= 1
 clq598: x60 + x73 + x86 <= 1
 clq599: x26 + x65 + x139 + x150 <= 1
 clq600: x1 + x70 + x79 + x128 <= 1
 clq601: x10 + x41 + x98 <= 1
 clq602: x14 + x46 + x114 <= 1
 clq603: x12 + x84 + x95 <= 1
 clq604: x48 + x61 + x119 <= 1
 clq605: x113 + x128 + x135 <= 1
 clq606: x16 + x19 + x126 <= 1
 clq607: x10 + x37 + x105 + x126 <= 1
 clq608: x24 + x50 + x115 <= 1
 clq609: x26 + x41 + x68 <= 1
 clq610: x49 + x66 + x97 + x112 <= 1
 clq611: x42 + x125 + x137 <= 1
 clq612: x51 + x74 + x80 <= 1
 clq613: x84 + x123 + x143 <= 1
 clq614: x14 + x26 + x83 <= 1
 clq615: x103 + x105 + x125 + x134 + x136 <= 1
 clq616: x23 + x36 + x65 <= 1
 clq617: x5 + x51 + x122 <= 1
 clq618: x22 + x111 + x115 + x138 <= 1
 clq619: x52 + x66 + x117 <= 1
 clq620: x10 + x32 + x83 + x116 <= 1
 clq621: x43 + x93 + x147 <= 1
 clq622: x32 + x40 + x86 + x104 <= 1
 clq623: x27 + x49 + x97 + x136 <= 1
 clq624: x5 + x39 + x51 + x60 <= 1
 clq625: x10 + x32 + x103 + x116 <= 1
 clq626: x23 + x40 + x91 <= 1
 clq627: x32 + x104 + x111 + x116 <= 1
 clq628: x46 + x75 + x124 <= 1
 clq629: x4 + x97 + x112 <= 1
 clq630: x40 + x42 + x48 <= 1
 clq631: x4 + x34 + x91 <= 1
 clq632: x80 + x93 + x129 <= 1
 clq633: x26 + x46 + x84 + x88 <= 1
 clq634: x62 + x72 + x74 + x75 <= 1
 clq635: x5 + x35 + x116 + x126 <= 1
 clq636: x13 + x41 + x94 <= 1
 clq637: x3 + x14 + x85 + x113 <= 1
 clq638: x4 + x118 + x133 + x145 <= 1
 clq639: x32 + x104 + x124 + x140 <= 1
 clq640: x85 + x88 + x113 + x128 <= 1
 clq641: x39 + x71 + x139 <= 1
 clq642: x49 + x96 + x109 <= 1
 clq643: x43 + x53 + x129 <= 1
 clq644: x3 + x67 + x69 + x82 <= 1
 clq645: x95 + x113 <= 1
 clq646: x8 + x83 <= 1
 clq647: x56 + x97 + x103 <= 1
 clq648: x7 + x50 + x70 + x82 + x99 <= 1
 clq649: x5 + x27 + x60 + x105 <= 1
 clq650: x20 + x50 + x99 <= 1
 clq651: x13 + x17 + x64 <= 1
 clq652: x13 + x33 + x66 + x102 + x147 <= 1
 clq653: x7 + x38 + x83 <= 1
 clq654: x21 + x25 + x81 + x108 <= 1
 clq655: x35 + x70 + x102 + x107 <= 1
 clq656: x6 + x59 + x149 <= 1
 clq657: x4 + x131 + x132 + x135 <= 1
 clq658: x44 + x52 + x97 + x98 <= 1
 clq659: x3 + x9 + x19 <= 1
 clq660: x54 + x87 + x102 + x105 <= 1
 clq661: x19 + x78 + x105 + x126 <= 1
 clq662: x10 + x18 + x45 <= 1
 clq663: x103 + x129 + x136 <= 1
 clq664: x14 + x69 + x100 + x117 <= 1
 clq665: x74 + x113 + x116 + x121 <= 1
 clq666: x86 + x117 + x137 + x141 <= 1
 clq667: x61 + x88 + x134 <= 1
 clq668: x37 + x101 + x124 + x126 <= 1
 clq669: x85 + x106 <= 1
 clq670: x10 + x37 + x41 + x126 <= 1
 clq671: x43 + x127 + x147 <= 1
 clq672: x44 + x45 + x121 + x148 <= 1
 clq673: x2 + x79 + x114 <= 1
 clq674: x3 + x60 + x123 <= 1
 clq675: x84 + x106 + x145 <= 1
 clq676: x75 + x105 + x128 + x138 <= 1
 clq677: x14 + x78 + x126 + x136 <= 1
 clq678: x29 + x51 + x72 <= 1
 clq679: x28 + x58 + x83 <= 1
 clq680: x49 + x60 + x123 <= 1
 clq681: x29 + x42 + x80 <= 1
 clq682: x7 + x96 + x130 <= 1
 clq683: x22 + x104 + x111 + x140 <= 1
 clq684: x11 + x79 + x112 + x115 <= 1
 clq685: x24 + x41 + x56 + x135 <= 1
 clq686: x39 + x53 + x56 <= 1
 clq687: x7 + x62 + x65 + x70 <= 1
 clq688: x11 + x33 + x41 + x53 <= 1
 clq689: x53 + x55 + x125 + x148 <= 1
 clq690: x11 + x49 + x69 + x112 <= 1
 clq691: x5 + x76 + x121 <= 1
 clq692: x89 + x109 + x116 <= 1
 clq693: x10 + x103 + x116 + x144 <= 1
 clq694: x118 + x126 + x131 <= 1
 clq695: x23 + x82 + x132 <= 1
 clq696: x62 + x102 + x118 + x131 <= 1
 clq697: x24 + x64 + x70 + x91 <= 1
 clq698: x10 + x108 + x144 <= 1
 clq699: x6 + x64 + x97 + x136 <= 1
 clq700: x12 + x28 + x66 <= 1
 clq701: x18 + x22 + x92 + x97 <= 1
 clq702: x62 + x64 + x120 + x140 <= 1
 clq703: x33 + x64 + x108 + x120 <= 1
 clq704: x39 + x40 + x141 <= 1
 clq705: x57 + x82 + x133 <= 1
 clq706: x55 + x69 + x88 + x141 <= 1
 clq707: x65 + x100 + x143 <= 1
 clq708: x47 + x81 + x118 + x145 <= 1
 clq709: x57 + x63 + x115 + x138 <= 1
 clq710: x15 + x19 + x104 + x112 <= 1
 clq711: x43 + x76 + x112 <= 1
 clq712: x78 + x102 + x105 + x122 <= 1
 clq713: x71 + x102 + x125 + x131 <= 1
 clq714: x57 + x63 + x82 + x141 <= 1
 clq715: x48 + x53 + x77 <= 1
 clq716: x49 + x60 + x96 <= 1
 clq717: x55 + x88 + x101 + x149 <= 1
 clq718: x35 + x90 + x93 <= 1
 clq719: x10 + x45 + x63 + x144 <= 1
 clq720: x7 + x50 + x70 + x124 <= 1
 clq721: x14 + x94 + x102 + x103 <= 1
 clq722: x2 + x98 + x104 + x146 <= 1
 clq723: x42 + x48 + x146 <= 1
 clq724: x37 + x108 + x148 <= 1
 clq725: x104 + x122 + x140 <= 1
 clq726: x30 + x38 + x70 + x145 <= 1
 clq727: x70 + x91 + x107 + x133 <= 1
 clq728: x12 + x28 + x39 <= 1
 clq729: x33 + x93 + x114 + x138 <= 1
 clq730: x5 + x51 + x57 + x76 <= 1
 clq731: x13 + x51 + x128 <= 1
 clq732: x5 + x55 + x69 + x139 <= 1
 clq733: x10 + x85 + x114 <= 1
 clq734: x25 + x108 + x144 <= 1
 clq735: x25 + x44 + x77 + x140 <= 1
 clq736: x96 + x130 + x147 <= 1
 clq737: x32 + x104 + x116 + x132 <= 1
 clq738: x43 + x72 + x75 <= 1
 clq739: x25 + x28 + x34 + x74 <= 1
 clq740: x11 + x87 + x122 <= 1
 clq741: x1 + x67 + x73 <= 1
 clq742: x22 + x33 + x137 + x138 <= 1
 clq743: x66 + x92 + x102 + x147 <= 1
 clq744: x14 + x26 + x35 <= 1
 clq745: x7 + x62 + x65 + x100 <= 1
 clq746: x71 + x72 + x86 <= 1
 clq747: x11 + x64 + x115 + x120 <= 1
 clq748: x1 + x27 + x39 + x90 + x118 <= 1
 clq749: x10 + x37 + x41 + x58 + x63 <= 1
 clq750: x28 + x29 + x85 <= 1
 clq751: x20 + x52 + x149 <= 1
 clq752: x10 + x27 + x42 + x139 <= 1
 clq753: x27 + x75 + x90 + x95 <= 1
 clq754: x104 + x122 + x132 <= 1
 clq755: x2 + x90 + x119 <= 1
 clq756: x5 + x20 + x69 + x141 <= 1
 clq757: x15 + x60 + x86 + x104 <= 1
 clq758: x25 + x89 + x92 + x97 <= 1
 clq759: x48 + x61 + x85 + x128 <= 1
 clq760: x84 + x122 + x123 <= 1
 clq761: x4 + x35 + x70 <= 1
 clq762: x24 + x33 + x41 + x68 <= 1
 clq763: x41 + x49 + x110 + x134 <= 1
 clq764: x94 + x102 + x131 <= 1
 clq765: x78 + x88 + x126 <= 1
 clq766: x37 + x70 + x87 + x124 <= 1
 clq767: x66 + x106 + x117 <= 1
 clq768: x35 + x56 + x130 <= 1
 clq769: x77 + x103 + x124 + x129 <= 1
 clq770: x3 + x14 + x69 + x113 <= 1
 clq771: x4 + x112 + x131 <= 1
 clq772: x22 + x85 + x137 <= 1
 clq773: x45 + x144 + x146 <= 1
 clq774: x36 + x56 + x73 + x111 <= 1
 clq775: x47 + x124 + x140 <= 1
 clq776: x41 + x63 + x137 <= 1
 clq777: x28 + x74 + x82 + x121 <= 1
 clq778: x20 + x37 + x99 + x136 <= 1
 clq779: x14 + x32 + x44 + x67 + x69 <= 1
 clq780: x53 + x58 + x106 <= 1
 clq781: x31 + x91 + x133 <= 1
 clq782: x38 + x108 + x144 <= 1
 clq783: x82 + x89 + x97 + x132 <= 1
 clq784: x15 + x60 + x104 + x149 <= 1
 clq785: x4 + x57 + x76 + x112 <= 1
 clq786: x113 + x116 + x130 + x148 <= 1
 clq787: x22 + x105 + x115 + x138 <= 1
 clq788: x72 + x106 + x147 <= 1
 clq789: x16 + x44 + x64 + x109 <= 1
 clq790: x19 + x42 + x76 <= 1
 clq791: x5 + x35 + x56 + x93 <= 1
 clq792: x28 + x46 + x75 + x95 <= 1
 clq793: x54 + x112 + x137 <= 1
 clq794: x19 + x32 + x103 + x134 <= 1
 clq795: x12 + x141 + x142 <= 1
 clq796: x45 + x84 <= 1
 clq797: x96 + x97 + x103 + x125 <= 1
 clq798: x26 + x42 + x125 <= 1
 clq799: x5 + x38 + x51 + x116 <= 1
 clq800: x33 + x105 + x108 + x138 <= 1
 clq801: x12 + x79 + x128 + x141 <= 1
 clq802: x48 + x98 + x146 <= 1
 clq803: x9 + x94 + x109 <= 1
 clq804: x8 + x61 + x99 <= 1
 clq805: x37 + x99 + x147 <= 1
 clq806: x7 + x65 + x130 <= 1
 clq807: x55 + x88 + x108 + x148 <= 1
 clq808: x27 + x39 + x147 <= 1
 clq809: x7 + x135 + x145 <= 1
 clq810: x2 + x22 + x38 + x97 <= 1
 clq811: x25 + x34 + x100 <= 1
 clq812: x36 + x37 + x56 + x99 <= 1
 clq813: x56 + x87 + x97 <= 1
 clq814: x3 + x14 + x26 <= 1
 clq815: x21 + x54 + x56 + x99 <= 1
 clq816: x3 + x13 + x17 + x141 <= 1
 clq817: x14 + x83 + x102 <= 1
 clq818: x27 + x39 + x90 + x148 <= 1
 clq819: x3 + x61 + x122 + x144 <= 1
 clq820: x42 + x57 + x76 <= 1
 clq821: x43 + x96 + x97 <= 1
 clq822: x34 + x50 + x74 + x122 <= 1
 clq823: x63 + x137 + x138 <= 1
 clq824: x17 + x71 + x102 + x107 <= 1
 clq825: x5 + x8 + x33 <= 1
 clq826: x22 + x45 + x104 + x111 <= 1
 clq827: x17 + x89 + x110 <= 1
 clq828: x16 + x66 + x97 + x112 <= 1
 clq829: x68 + x107 + x109 <= 1
 clq830: x76 + x77 + x150 <= 1
 clq831: x9 + x13 + x128 <= 1
 clq832: x56 + x122 + x132 <= 1
 clq833: x37 + x101 + x115 <= 1
 clq834: x4 + x18 + x21 + x61 <= 1
 clq835: x32 + x56 + x67 + x111 <= 1
 clq836: x10 + x27 + x95 + x120 <= 1
 clq837: x7 + x31 + x73 <= 1
 clq838: x35 + x104 + x115 <= 1
 clq839: x11 + x72 + x115 + x131 <= 1
 clq840: x79 + x116 + x130 <= 1
 clq841: x44 + x46 + x56 <= 1
 clq842: x6 + x26 + x72 <= 1
 clq843: x16 + x60 + x77 <= 1
 clq844: x67 + x101 <= 1
 clq845: x21 + x82 + x83 + x149 <= 1
 clq846: x47 + x81 + x114 <= 1
 clq847: x16 + x33 + x66 + x102 <= 1
 clq848: x54 + x59 + x127 <= 1
 clq849: x1 + x7 + x94 <= 1
 clq850: x36 + x66 + x110 + x112 <= 1
 clq851: x8 + x80 + x84 <= 1
 clq852: x34 + x39 + x145 + x148 <= 1
 clq853: x43 + x65 + x97 + x148 <= 1
 clq854: x34 + x61 + x85 <= 1
 clq855: x96 + x114 + x125 <= 1
 clq856: x11 + x14 + x49 + x138 <= 1
 clq857: x4 + x34 + x61 + x99 + x135 <= 1
 clq858: x21 + x56 + x143 <= 1
 clq859: x3 + x123 + x129 <= 1
 clq860: x24 + x85 <= 1
 clq861: x84 + x106 + x143 + x147 <= 1
 clq862: x37 + x51 + x135 <= 1
 clq863: x17 + x76 + x150 <= 1
 clq864: x9 + x13 + x27 + x73 <= 1
 clq865: x3 + x7 + x16 <= 1
 clq866: x5 + x30 + x38 + x121 <= 1
 clq867: x30 + x67 + x73 + x111 <= 1
 clq868: x5 + x23 + x125 + x140 <= 1
 clq869: x10 + x55 + x76 + x103 <= 1
 clq870: x28 + x46 + x131 <= 1
 clq871: x3 + x47 + x67 <= 1
 clq872: x89 + x101 + x114 + x146 <= 1
 clq873: x48 + x85 + x103 <= 1
 clq874: x16 + x109 + x112 <= 1
 clq875: x1 + x17 + x89 <= 1
 clq876: x2 + x90 + x118 <= 1
 clq877: x2 + x5 + x99 + x146 <= 1
 clq878: x121 + x123 + x129 + x142 <= 1
 clq879: x67 + x131 + x144 <= 1
 clq880: x4 + x24 + x131 + x135 <= 1
 clq881: x47 + x72 + x145 <= 1
 clq882: x77 + x87 + x95 + x129 <= 1
 clq883: x96 + x102 + x147 <= 1
 clq884: x37 + x87 + x110 <= 1
 clq885: x43 + x97 + x112 + x148 <= 1
 clq886: x72 + x88 + x113 <= 1
 clq887: x1 + x57 + x90 + x93 <= 1
Bounds
 0 <= x1 <= 1
 0 <= x2 <= 1
 0 <= x3 <= 1
 0 <= x4 <= 1
 0 <= x5 <= 1
 0 <= x6 <= 1
 0 <= x7 <= 1
 0 <= x8 <= 1
 0 <= x9 <= 1
 0 <= x10 <= 1
 0 <= x11 <= 1
 0 <= x12 <= 1
 0 <= x13 <= 1
 0 <= x14 <= 1
 0 <= x15 <= 1
 0 <= x16 <= 1
 0 <= x17 <= 1
 0 <= x18 <= 1
 0 <= x19 <= 1
 0 <= x20 <= 1
 0 <= x21 <= 1
 0 <= x22 <= 1
 0 <= x23 <= 1
 0 <= x24 <= 1
 0 <= x25 <= 1
 0 <= x26 <= 1
 0 <= x27 <= 1
 0 <= x28 <= 1
 0 <= x29 <= 1
 0 <= x30 <= 1
 0 <= x31 <= 1
 0 <= x32 <= 1
 0 <= x33 <= 1
 0 <= x34 <= 1
 0 <= x35 <= 1
 0 <= x36 <= 1
 0 <= x37 <= 1
 0 <= x38 <= 1
 0 <= x39 <= 1
 0 <= x40 <= 1
 0 <= x41 <= 1
 0 <= x42 <= 1
 0 <= x43 <= 1
 0 <= x44 <= 1
 0 <= x45 <= 1
 0 <= x46 <= 1
 0 <= x47 <= 1
 0 <= x48 <= 1
 0 <= x49 <= 1
 0 <= x50 <= 1
 0 <= x51 <= 1
 0 <= x52 <= 1
 0 <= x53 <= 1
 0 <= x54 <= 1
 0 <= x55 <= 1
 0 <= x56 <= 1
 0 <= x57 <= 1
 0 <= x58 <= 1
 0 <= x59 <= 1
 0 <= x60 <= 1
 0 <= x61 <= 1
 0 <= x62 <= 1
 0 <= x63 <= 1
 0 <= x64 <= 1
 0 <= x65 <= 1
 0 <= x66 <= 1
 0 <= x67 <= 1
 0 <= x68 <= 1
 0 <= x69 <= 1
 0 <= x70 <= 1
 0 <= x71 <= 1
 0 <= x72 <= 1
 0 <= x73 <= 1
 0 <= x74 <= 1
 0 <= x75 <= 1
 0 <= x76 <= 1
 0 <= x77 <= 1
 0 <= x78 <= 1
 0 <= x79 <= 1
 0 <= x80 <= 1
 0 <= x81 <= 1
 0 <= x82 <= 1
 0 <= x83 <= 1
 0 <= x84 <= 1
 0 <= x85 <= 1
 0 <= x86 <= 1
 0 <= x87 <= 1
 0 <= x88 <= 1
 0 <= x89 <= 1
 0 <= x90 <= 1
 0 <= x91 <= 1
 0 <= x92 <= 1
 0 <= x93 <= 1
 0 <= x94 <= 1
 0 <= x95 <= 1
 0 <= x96 <= 1
 0 <= x97 <= 1
 0 <= x98 <= 1
 0 <= x99 <= 1
 0 <= x100 <= 1
 0 <= x101 <= 1
 0 <= x102 <= 1
 0 <= x103 <= 1
 0 <= x104 <= 1
 0 <= x105 <= 1
 0 <= x106 <= 1
 0 <= x107 <= 1
 0 <= x108 <= 1
 0 <= x109 <= 1
 0 <= x110 <= 1
 0 <= x111 <= 1
 0 <= x112 <= 1
 0 <= x113 <= 1
 0 <= x114 <= 1
 0 <= x115 <= 1
 0 <= x116 <= 1
 0 <= x117 <= 1
 0 <= x118 <= 1
 0 <= x119 <= 1
 0 <= x120 <= 1
 0 <= x121 <= 1
 0 <= x122 <= 1
 0 <= x123 <= 1
 0 <= x124 <= 1
 0 <= x125 <= 1
 0 <= x126 <= 1
 0 <= x127 <= 1
 0 <= x128 <= 1
 0 <= x129 <= 1
 0 <= x130 <= 1
 0 <= x131 <= 1
 0 <= x132 <= 1
 0 <= x133 <= 1
 0 <= x134 <= 1
 0 <= x135 <= 1
 0 <= x136 <= 1
 0 <= x137 <= 1
 0 <= x138 <= 1
 0 <= x139 <= 1
 0 <= x140 <= 1
 0 <= x141 <= 1
 0 <= x142 <= 1
 0 <= x143 <= 1
 0 <= x144 <= 1
 0 <= x145 <= 1
 0 <= x146 <= 1
 0 <= x147 <= 1
 0 <= x148 <= 1
 0 <= x149 <= 1
 0 <= x150 <= 1
Binaries
 x1  x2  x3  x4  x5  x6  x7  x8  x9  x10  x11  x12  x13  x14  x15  x16  x17 
 x18  x19  x20  x21  x22  x23  x24  x25  x26  x27  x28  x29  x30  x31  x32 
 x33  x34  x35  x36  x37  x38  x39  x40  x41  x42  x43  x44  x45  x46  x47 
 x48  x49  x50  x51  x52  x53  x54  x55  x56  x57  x58  x59  x60  x61  x62 
 x63  x64  x65  x66  x67  x68  x69  x70  x71  x72  x73  x74  x75  x76  x77 
 x78  x79  x80  x81  x82  x83  x84  x85  x86  x87  x88  x89  x90  x91  x92 
 x93  x94  x95  x96  x97  x98  x99  x100  x101  x102  x103  x104  x105  x106 
 x107  x108  x109  x110  x111  x112  x113  x114  x115  x116  x117  x118  x119 
 x120  x121  x122  x123  x124  x125  x126  x127  x128  x129  x130  x131  x132 
 x133  x134  x135  x136  x137  x138  x139  x140  x141  x142  x143  x144  x145 
 x146  x147  x148  x149  x150 
End
